/benchmark/cnf/maxsat/evaluation/ms/HanLin/SPINGLASS/spinglass5_4.pm3.cnf
o 87
o 85
o 83
o 81
o 79
o 77
o 75
o 73
o 71
c Best Solution=71
c NB_MONO= 5299, NB_UNIT= 1, NB_BRANCHE= 52242, NB_BACK= 26125 
c Program terminated in 10.940 seconds.
o 71
s OPTIMUM FOUND
v -1 -2 3 4 5 -6 -7 -8 -9 10 11 -12 13 -14 -15 -16 17 -18 19 -20 21 -22 23 24 25 -26 27 -28 -29 30 -31 32 33 34 35 -36 37 38 39 40 41 42 43 44 45 46 -47 48 -49 50 51 52 -53 54 -55 -56 -57 -58 59 -60 61 62 63 -64 65 66 -67 -68 -69 70 -71 -72 73 -74 -75 -76 -77 -78 79 80 -81 -82 -83 -84 85 -86 87 88 -89 90 91 92 -93 -94 -95 96 97 98 99 100 -101 102 103 -104 105 -106 107 -108 -109 110 111 112 113 -114 -115 116 117 -118 119 120 121 122 -123 124 125 
/benchmark/cnf/maxsat/evaluation/ms/HanLin/SPINGLASS/spinglass5_8.pm3.cnf
o 109
o 107
o 105
o 103
o 101
o 99
o 97
o 95
o 93
o 91
o 89
o 87
o 85
o 83
o 81
o 79
o 77
o 75
c Best Solution=75
c NB_MONO= 15267, NB_UNIT= 1, NB_BRANCHE= 130122, NB_BACK= 65069 
c Program terminated in 24.020 seconds.
o 75
s OPTIMUM FOUND
v -1 2 -3 4 5 -6 -7 8 -9 -10 11 12 13 -14 15 16 17 18 -19 20 -21 -22 23 -24 25 -26 27 -28 29 30 -31 -32 33 -34 35 -36 37 -38 39 40 -41 -42 -43 -44 45 -46 47 -48 -49 50 51 -52 -53 -54 -55 -56 -57 58 -59 -60 61 -62 63 64 65 66 -67 -68 -69 70 71 -72 73 -74 75 76 -77 -78 -79 -80 -81 -82 83 -84 -85 -86 87 88 -89 -90 -91 92 93 -94 95 96 -97 -98 99 100 101 102 -103 -104 105 106 107 108 -109 -110 -111 -112 -113 114 115 116 -117 118 119 -120 -121 -122 -123 124 125 
/benchmark/cnf/maxsat/evaluation/ms/HanLin/SPINGLASS/spinglass4_9.pm3.cnf
o 52
o 50
o 48
o 46
o 44
o 42
o 40
c Best Solution=40
c NB_MONO= 190, NB_UNIT= 1, NB_BRANCHE= 1456, NB_BACK= 730 
c Program terminated in 0.090 seconds.
o 40
s OPTIMUM FOUND
v -1 -2 3 4 5 6 7 -8 -9 10 11 12 -13 -14 -15 -16 -17 -18 -19 -20 -21 -22 23 -24 -25 26 -27 28 29 30 31 -32 -33 34 35 -36 37 -38 39 -40 41 42 -43 -44 45 46 -47 -48 -49 -50 51 52 -53 54 -55 -56 57 -58 -59 -60 -61 -62 63 -64 
/benchmark/cnf/maxsat/evaluation/ms/HanLin/SPINGLASS/spinglass4_1.pm3.cnf
o 52
o 50
o 48
o 46
o 44
o 42
o 40
o 38
o 36
c Best Solution=36
c NB_MONO= 130, NB_UNIT= 1, NB_BRANCHE= 522, NB_BACK= 265 
c Program terminated in 0.030 seconds.
o 36
s OPTIMUM FOUND
v -1 2 -3 4 5 -6 7 -8 -9 -10 -11 -12 13 14 15 16 -17 -18 19 -20 21 -22 23 -24 -25 -26 -27 28 29 30 31 -32 -33 -34 -35 -36 37 38 39 40 -41 42 43 -44 45 46 47 -48 49 50 -51 52 53 -54 -55 -56 57 -58 -59 -60 61 -62 63 -64 
/benchmark/cnf/maxsat/evaluation/ms/HanLin/SPINGLASS/spinglass5_7.pm3.cnf
o 105
o 103
o 101
o 99
o 97
o 95
o 93
o 91
o 89
o 87
o 85
o 83
o 81
o 79
c Best Solution=79
c NB_MONO= 56685, NB_UNIT= 1, NB_BRANCHE= 416085, NB_BACK= 208045 
c Program terminated in 69.220 seconds.
o 79
s OPTIMUM FOUND
v -1 -2 -3 4 5 -6 -7 8 -9 10 -11 -12 13 14 -15 -16 -17 -18 -19 -20 -21 -22 -23 24 25 26 -27 28 -29 30 -31 32 -33 34 35 36 37 38 39 40 -41 42 -43 44 -45 46 47 -48 -49 50 -51 -52 -53 54 -55 -56 57 -58 59 60 -61 62 63 -64 65 66 67 68 69 70 -71 -72 73 -74 -75 -76 77 78 79 -80 81 82 83 -84 -85 -86 -87 88 -89 90 91 92 93 -94 -95 96 97 -98 -99 100 -101 102 103 104 -105 106 -107 -108 109 110 111 112 113 114 -115 116 117 -118 -119 120 121 122 -123 124 125 
/benchmark/cnf/maxsat/evaluation/ms/HanLin/SPINGLASS/spinglass5_10.pm3.cnf
o 103
o 101
o 99
o 97
o 95
o 93
o 91
o 89
o 87
o 85
o 83
o 81
o 79
o 77
c Best Solution=77
c NB_MONO= 46088, NB_UNIT= 1, NB_BRANCHE= 336874, NB_BACK= 168445 
c Program terminated in 59.290 seconds.
o 77
s OPTIMUM FOUND
v -1 2 -3 4 5 6 -7 -8 9 -10 -11 12 -13 -14 -15 16 -17 -18 -19 -20 -21 22 23 -24 -25 -26 -27 28 29 -30 31 -32 33 -34 -35 36 -37 38 -39 -40 41 -42 -43 44 45 -46 -47 -48 -49 50 51 -52 53 54 55 56 -57 58 59 60 -61 -62 -63 64 65 -66 -67 -68 -69 70 -71 72 73 74 75 -76 77 -78 -79 -80 -81 82 83 -84 -85 -86 87 -88 -89 -90 -91 -92 -93 -94 -95 96 97 98 -99 100 -101 102 -103 104 -105 106 -107 -108 109 110 -111 -112 -113 -114 -115 -116 -117 118 -119 -120 -121 122 123 124 125 
/benchmark/cnf/maxsat/evaluation/ms/HanLin/SPINGLASS/spinglass4_8.pm3.cnf
o 46
o 44
o 42
c Best Solution=42
c NB_MONO= 277, NB_UNIT= 1, NB_BRANCHE= 2553, NB_BACK= 1279 
c Program terminated in 0.170 seconds.
o 42
s OPTIMUM FOUND
v -1 -2 -3 4 5 -6 -7 -8 9 10 -11 12 13 -14 15 16 17 -18 19 20 -21 -22 -23 24 25 -26 27 -28 -29 -30 -31 -32 -33 -34 -35 -36 37 -38 -39 40 41 -42 43 -44 -45 -46 47 48 49 50 -51 -52 -53 -54 -55 -56 -57 -58 -59 60 -61 -62 63 -64 
/benchmark/cnf/maxsat/evaluation/ms/HanLin/SPINGLASS/spinglass4_3.pm3.cnf
o 58
o 56
o 54
o 52
o 50
o 48
o 46
o 44
o 42
o 40
o 38
o 36
o 34
c Best Solution=34
c NB_MONO= 159, NB_UNIT= 1, NB_BRANCHE= 384, NB_BACK= 196 
c Program terminated in 0.020 seconds.
o 34
s OPTIMUM FOUND
v -1 -2 -3 4 -5 -6 -7 8 9 -10 11 12 13 14 -15 -16 17 18 19 -20 -21 -22 23 -24 -25 26 -27 28 -29 30 31 32 33 34 35 -36 37 38 39 -40 -41 42 -43 -44 45 -46 47 48 -49 50 51 -52 53 -54 -55 56 -57 58 59 -60 61 62 -63 -64 
/benchmark/cnf/maxsat/evaluation/ms/HanLin/SPINGLASS/spinglass4_2.pm3.cnf
o 48
o 46
o 44
o 42
o 40
c Best Solution=40
c NB_MONO= 173, NB_UNIT= 1, NB_BRANCHE= 1376, NB_BACK= 686 
c Program terminated in 0.100 seconds.
o 40
s OPTIMUM FOUND
v -1 -2 -3 -4 -5 -6 -7 -8 -9 10 11 -12 13 -14 15 -16 17 -18 -19 20 21 22 23 24 -25 -26 -27 28 -29 -30 -31 -32 -33 -34 35 36 -37 -38 -39 -40 -41 -42 43 -44 -45 -46 47 48 -49 -50 51 52 -53 54 -55 56 57 -58 -59 60 61 62 63 64 
/benchmark/cnf/maxsat/evaluation/ms/HanLin/SPINGLASS/spinglass5_3.pm3.cnf
o 95
o 93
o 91
o 89
o 87
o 85
o 83
o 81
o 79
c Best Solution=79
c NB_MONO= 65390, NB_UNIT= 1, NB_BRANCHE= 555127, NB_BACK= 277569 
c Program terminated in 94.050 seconds.
o 79
s OPTIMUM FOUND
v -1 -2 -3 -4 -5 -6 -7 8 9 -10 11 -12 -13 -14 -15 -16 -17 -18 -19 20 21 22 -23 -24 -25 -26 -27 28 -29 -30 -31 -32 33 -34 35 36 37 -38 39 -40 -41 -42 -43 44 -45 46 -47 -48 -49 -50 51 -52 -53 54 55 56 -57 58 -59 60 -61 -62 -63 64 65 66 -67 68 -69 -70 -71 72 73 74 -75 76 77 -78 -79 80 -81 82 -83 -84 85 -86 87 88 -89 90 91 -92 93 -94 95 96 -97 98 99 100 101 102 -103 104 -105 106 -107 108 109 110 -111 -112 -113 114 115 -116 -117 118 119 120 121 -122 -123 -124 125 
/benchmark/cnf/maxsat/evaluation/ms/HanLin/SPINGLASS/spinglass5_6.pm3.cnf
o 99
o 97
o 95
o 93
o 91
o 89
o 87
o 85
o 83
o 81
c Best Solution=81
c NB_MONO= 209451, NB_UNIT= 1, NB_BRANCHE= 1248205, NB_BACK= 624103 
c Program terminated in 201.050 seconds.
o 81
s OPTIMUM FOUND
v -1 -2 -3 -4 5 6 -7 -8 9 10 11 -12 13 -14 -15 -16 -17 -18 -19 20 21 22 23 -24 25 -26 -27 -28 29 -30 31 -32 -33 34 35 -36 37 38 39 -40 41 42 43 44 45 -46 -47 -48 -49 -50 -51 52 -53 54 -55 56 -57 58 -59 -60 61 62 63 64 65 66 -67 68 -69 70 71 -72 -73 74 -75 76 -77 78 79 -80 81 82 83 -84 85 -86 87 -88 -89 -90 -91 -92 -93 -94 95 -96 -97 -98 -99 100 -101 102 -103 -104 105 106 107 -108 -109 -110 111 -112 -113 114 115 -116 -117 118 119 -120 121 -122 123 -124 125 
/benchmark/cnf/maxsat/evaluation/ms/HanLin/SPINGLASS/spinglass5_9.pm3.cnf
o 101
o 99
o 97
o 95
o 93
o 91
o 89
o 87
o 85
o 83
o 81
o 79
o 77
c Best Solution=77
c NB_MONO= 37656, NB_UNIT= 1, NB_BRANCHE= 324220, NB_BACK= 162111 
c Program terminated in 60.100 seconds.
o 77
s OPTIMUM FOUND
v -1 2 -3 4 -5 -6 7 -8 9 10 11 -12 13 14 15 16 -17 -18 19 20 -21 22 -23 24 -25 26 -27 28 29 -30 -31 32 33 -34 -35 -36 -37 -38 -39 -40 -41 42 43 -44 -45 -46 47 48 -49 -50 -51 -52 -53 -54 55 -56 -57 58 59 60 -61 -62 63 64 -65 66 -67 68 -69 -70 71 -72 -73 -74 75 76 77 78 -79 80 81 82 83 84 85 86 -87 -88 -89 -90 91 92 -93 -94 -95 96 97 98 99 100 -101 -102 103 104 -105 106 -107 108 109 110 111 -112 113 -114 115 -116 117 118 -119 -120 121 -122 -123 124 125 
/benchmark/cnf/maxsat/evaluation/ms/HanLin/SPINGLASS/spinglass5_2.pm3.cnf
o 103
o 101
o 99
o 97
o 95
o 93
o 91
o 89
o 87
o 85
o 83
o 81
o 79
o 77
o 75
c Best Solution=75
c NB_MONO= 12844, NB_UNIT= 1, NB_BRANCHE= 114801, NB_BACK= 57400 
c Program terminated in 21.780 seconds.
o 75
s OPTIMUM FOUND
v -1 -2 -3 4 5 6 7 8 -9 -10 -11 12 -13 -14 15 16 17 18 -19 -20 -21 22 -23 -24 -25 -26 27 -28 29 30 31 -32 -33 -34 -35 -36 37 -38 39 -40 -41 42 -43 -44 -45 -46 -47 -48 -49 50 51 -52 -53 -54 55 -56 -57 58 -59 60 -61 62 63 -64 -65 66 -67 -68 -69 -70 -71 72 -73 74 75 76 -77 78 -79 80 81 -82 83 -84 85 -86 87 88 89 90 91 92 93 94 -95 96 97 -98 -99 100 101 102 103 104 -105 106 107 108 109 -110 111 112 113 -114 115 -116 -117 118 119 -120 -121 -122 -123 -124 125 
/benchmark/cnf/maxsat/evaluation/ms/HanLin/SPINGLASS/spinglass4_5.pm3.cnf
o 54
o 52
o 50
o 48
o 46
o 44
o 42
o 40
c Best Solution=40
c NB_MONO= 299, NB_UNIT= 1, NB_BRANCHE= 1373, NB_BACK= 692 
c Program terminated in 0.080 seconds.
o 40
s OPTIMUM FOUND
v -1 2 3 -4 5 -6 7 -8 -9 -10 -11 -12 -13 -14 -15 16 -17 18 -19 -20 -21 -22 -23 -24 -25 -26 -27 28 29 30 31 32 33 34 -35 -36 37 38 39 -40 41 -42 43 -44 45 -46 47 -48 49 50 -51 -52 53 54 55 -56 57 58 59 60 -61 -62 63 64 
/benchmark/cnf/maxsat/evaluation/ms/HanLin/SPINGLASS/spinglass5_5.pm3.cnf
o 105
o 103
o 101
o 99
o 97
o 95
o 93
o 91
o 89
o 87
o 85
o 83
o 81
o 79
o 77
o 75
c Best Solution=75
c NB_MONO= 16636, NB_UNIT= 1, NB_BRANCHE= 148911, NB_BACK= 74456 
c Program terminated in 26.590 seconds.
o 75
s OPTIMUM FOUND
v -1 2 3 -4 -5 -6 7 8 9 10 -11 -12 -13 -14 -15 16 -17 -18 -19 20 -21 -22 23 24 -25 -26 27 -28 -29 30 -31 32 -33 34 -35 -36 -37 38 -39 40 -41 -42 43 44 45 46 47 -48 -49 50 51 -52 53 -54 -55 56 57 -58 59 60 -61 62 63 -64 65 -66 -67 -68 -69 -70 71 -72 73 -74 75 76 77 -78 -79 80 81 82 83 84 -85 -86 -87 88 89 90 91 -92 93 94 95 -96 -97 98 99 100 101 -102 103 104 -105 -106 -107 -108 109 110 111 112 113 114 -115 -116 -117 -118 119 120 121 122 -123 124 125 
/benchmark/cnf/maxsat/evaluation/ms/HanLin/SPINGLASS/spinglass4_4.pm3.cnf
o 50
o 46
o 44
o 42
o 40
c Best Solution=40
c NB_MONO= 154, NB_UNIT= 1, NB_BRANCHE= 1071, NB_BACK= 534 
c Program terminated in 0.070 seconds.
o 40
s OPTIMUM FOUND
v -1 -2 -3 4 5 -6 -7 8 -9 -10 -11 12 13 14 -15 16 17 18 -19 20 21 -22 -23 -24 -25 26 27 -28 29 -30 -31 -32 33 34 -35 36 -37 -38 -39 -40 41 42 43 -44 -45 46 47 48 49 -50 51 52 -53 54 55 56 57 58 -59 -60 -61 -62 -63 64 
/benchmark/cnf/maxsat/evaluation/ms/HanLin/SPINGLASS/spinglass5_1.pm3.cnf
o 111
o 109
o 107
o 105
o 103
o 101
o 99
o 97
o 95
o 93
o 91
o 89
o 87
o 85
o 83
o 81
o 79
c Best Solution=79
c NB_MONO= 128378, NB_UNIT= 1, NB_BRANCHE= 816990, NB_BACK= 408509 
c Program terminated in 134.160 seconds.
o 79
s OPTIMUM FOUND
v -1 2 -3 4 5 -6 7 8 -9 -10 11 12 13 14 15 -16 -17 18 19 20 21 -22 -23 24 -25 26 -27 28 -29 -30 -31 32 -33 34 -35 36 -37 38 -39 -40 -41 -42 43 -44 -45 -46 -47 -48 -49 -50 51 -52 -53 -54 -55 -56 57 -58 59 60 61 -62 63 -64 65 66 67 68 69 -70 71 72 73 -74 -75 76 -77 78 79 80 -81 82 83 -84 85 86 -87 88 -89 90 -91 -92 -93 94 95 -96 97 -98 99 100 101 102 103 -104 -105 -106 107 -108 -109 110 111 -112 -113 -114 -115 -116 -117 118 119 -120 121 122 123 124 -125 
/benchmark/cnf/maxsat/evaluation/ms/HanLin/SPINGLASS/spinglass4_7.pm3.cnf
o 52
o 50
o 48
o 46
o 44
c Best Solution=44
c NB_MONO= 525, NB_UNIT= 1, NB_BRANCHE= 4421, NB_BACK= 2212 
c Program terminated in 0.260 seconds.
o 44
s OPTIMUM FOUND
v -1 -2 -3 -4 -5 -6 -7 -8 9 -10 -11 -12 13 -14 15 16 17 18 19 -20 -21 -22 23 24 25 26 27 -28 -29 30 -31 32 -33 -34 -35 -36 37 38 -39 -40 -41 42 -43 -44 -45 46 -47 48 -49 -50 -51 -52 -53 -54 -55 56 -57 -58 59 60 -61 -62 -63 64 
/benchmark/cnf/maxsat/evaluation/ms/HanLin/SPINGLASS/spinglass4_6.pm3.cnf
o 56
o 52
o 50
o 48
o 46
o 44
o 42
c Best Solution=42
c NB_MONO= 280, NB_UNIT= 1, NB_BRANCHE= 2584, NB_BACK= 1290 
c Program terminated in 0.180 seconds.
o 42
s OPTIMUM FOUND
v -1 -2 -3 -4 5 -6 7 -8 9 10 -11 12 -13 -14 15 -16 -17 -18 -19 -20 21 22 23 -24 -25 -26 -27 -28 29 -30 -31 -32 33 34 -35 -36 -37 38 -39 40 -41 -42 -43 44 -45 46 -47 48 49 -50 -51 -52 53 54 -55 -56 -57 58 -59 -60 61 62 63 64 
/benchmark/cnf/maxsat/evaluation/ms/HanLin/SPINGLASS/spinglass4_10.pm3.cnf
o 52
o 50
o 48
o 46
o 44
o 42
o 40
c Best Solution=40
c NB_MONO= 277, NB_UNIT= 1, NB_BRANCHE= 1762, NB_BACK= 884 
c Program terminated in 0.110 seconds.
o 40
s OPTIMUM FOUND
v -1 -2 3 4 -5 6 7 -8 -9 10 11 12 13 14 15 -16 -17 -18 -19 20 21 22 -23 24 -25 -26 -27 -28 -29 -30 -31 32 -33 34 35 -36 37 38 39 -40 -41 42 -43 44 45 46 47 -48 -49 -50 -51 52 -53 54 -55 -56 57 -58 -59 60 61 -62 63 -64 
